CPXPARAM_Simplex_Display                         2
CPXPARAM_TimeLimit                               7200
CPXPARAM_Read_APIEncoding                        "*"
CPXPARAM_Output_CloneLog                         1
CPXPARAM_MIP_Tolerances_MIPGap                   0.035000000000000003
CPXPARAM_MIP_Interval                            20
CPXPARAM_MIP_Strategy_VariableSelect             1
CPXPARAM_Barrier_Display                         2
Tried aggregator 1 time.
MIP Presolve eliminated 48 rows and 0 columns.
MIP Presolve added 2970000 rows and 1485000 columns.
MIP Presolve modified 504944 coefficients.
Reduced MIP has 2970298 rows, 1495000 columns, and 6094701 nonzeros.
Reduced MIP has 1495000 binaries, 0 generals, 0 SOSs, and 0 indicators.
Presolve time = 2.58 sec. (1591.25 ticks)
Probing time = 47.10 sec. (1220.03 ticks)
Tried aggregator 1 time.
MIP Presolve eliminated 1989801 rows and 504801 columns.
Reduced MIP has 980497 rows, 990199 columns, and 3095298 nonzeros.
Reduced MIP has 990199 binaries, 0 generals, 0 SOSs, and 0 indicators.
Presolve time = 10.20 sec. (3028.58 ticks)
Probing time = 18.94 sec. (404.66 ticks)
Tried aggregator 1 time.
Reduced MIP has 980497 rows, 990199 columns, and 3095298 nonzeros.
Reduced MIP has 990199 binaries, 0 generals, 0 SOSs, and 0 indicators.
Presolve time = 14.12 sec. (2047.77 ticks)
Probing time = 20.69 sec. (396.55 ticks)
Clique table members: 246434.
MIP emphasis: balance optimality and feasibility.
MIP search method: dynamic search.
Parallel mode: deterministic, using up to 32 threads.
Root relaxation solution time = 3326.26 sec. (281143.46 ticks)

        Nodes                                         Cuts/
   Node  Left     Objective  IInf  Best Integer    Best Bound    ItCnt     Gap

      0     0     4202.9118   289                   4202.9118   143062         
*     0+    0                         4254.0188     4202.9118             1.20%
GUB cover cuts applied:  24
Clique cuts applied:  60
Cover cuts applied:  12
Implied bound cuts applied:  42
Flow cuts applied:  9
Mixed integer rounding cuts applied:  31
Zero-half cuts applied:  24
Lift and project cuts applied:  1
Gomory fractional cuts applied:  62

Root node processing (before b&c):
  Real time             = 5642.69 sec. (857681.47 ticks)
Parallel b&c, 32 threads:
  Real time             =    0.00 sec. (0.00 ticks)
  Sync time (average)   =    0.00 sec.
  Wait time (average)   =    0.00 sec.
                          ------------
Total (root+branch&cut) = 5642.69 sec. (857681.47 ticks)
